HUN,8,6,647
0,71,5,64,1,59,4,45,2,56,3,25
3,50,5,94,1,55,2,60,0,89,4,14
2,61,0,13,5,98,1,100,3,27,4,80
1,66,2,84,5,78,4,73,0,43,3,18
0,47,3,11,2,58,1,1,4,48,5,1
1,37,5,47,2,59,3,39,0,63,4,95
3,96,4,3,5,4,1,39,2,20,0,49
3,4,4,1,2,93,1,38,0,35,5,98
